54	38	78	40	46	9	96	20	69	28
52	67	11	59	35	26	84	2	87	49
52	11	20	40	31	45	96	42	77	82
72	7	86	38	5	12	92	29	71	26
18	81	60	26	91	81	36	91	57	5
6	15	85	26	77	26	43	42	62	91
79	44	89	22	21	2	57	86	45	72
33	25	13	63	79	87	78	80	84	64
21	44	79	16	48	12	62	83	64	38
29	17	31	69	58	18	25	34	40	80
